NAME: ACTUAL_TOURS/amz2630
TYPE: TOUR
COMMENT: RouteID_54622ac1-5ebc-42d1-bdf1-1e59af4b83eb
DIMENSION: 155
TOUR_SECTION
123
12
40
129
147
48
26
29
93
70
67
118
28
81
111
95
122
47
52
80
54
108
88
104
126
119
79
116
2
114
74
143
61
134
97
113
1
128
141
15
91
36
146
49
8
33
99
18
103
142
65
10
107
78
155
53
127
31
76
131
24
102
144
62
46
153
27
100
150
92
140
21
84
11
14
148
152
89
105
7
19
149
133
75
44
109
138
60
16
85
83
137
145
101
5
106
120
112
39
25
50
51
87
130
3
43
135
38
98
64
117
35
121
82
63
41
32
139
86
115
151
94
37
34
55
69
154
136
30
96
58
42
77
73
72
68
132
23
17
56
4
71
9
59
13
6
20
22
45
110
66
124
90
57
125
-1
EOF
